RobustCbss/GLKH-1.1/TMP/mtspf.pid4211.atsp
NAME : mtspf.pid4211.gtsp
TYPE : ATSP
DIMENSION : 45
EDGE_WEIGHT_TYPE : EXPLICIT
EDGE_WEIGHT_FORMAT : FULL_MATRIX
EDGE_WEIGHT_SECTION
999999 5368709 5368709 5368709 5368709 5368749 5368750 5368749 5368748 5368730 5368731 5368732 5368731 5368717 5368718 5368717 5368716 5368751 5368752 5368751 5368750 5368722 5368721 5368720 5368721 5368735 5368736 5368735 5368734 5368735 5368734 5368733 5368734 5368740 5368741 5368740 5368739 5368744 5368743 5368742 5368743 5368735 5368734 5368733 5368734 
5368709 999999 5368709 5368709 5368709 5368745 5368746 5368745 5368744 5368718 5368719 5368720 5368719 5368723 5368722 5368721 5368722 5368747 5368748 5368747 5368746 5368734 5368733 5368732 5368733 5368731 5368732 5368731 5368730 5368729 5368728 5368727 5368728 5368736 5368737 5368736 5368735 5368736 5368737 5368736 5368737 5368733 5368732 5368733 5368734 
5368709 5368709 999999 5368709 5368709 5368746 5368747 5368746 5368745 5368725 5368726 5368727 5368726 5368738 5368737 5368736 5368737 5368742 5368743 5368742 5368741 5368743 5368742 5368741 5368742 5368730 5368731 5368730 5368729 5368730 5368729 5368728 5368729 5368739 5368738 5368739 5368740 5368729 5368730 5368731 5368730 5368734 5368733 5368734 5368735 
5368709 5368709 5368709 999999 5368709 5368752 5368753 5368754 5368753 5368741 5368742 5368743 5368742 5368754 5368753 5368752 5368753 5368748 5368749 5368748 5368747 5368761 5368760 5368759 5368760 5368744 5368743 5368744 5368743 5368740 5368739 5368740 5368741 5368753 5368752 5368753 5368754 5368735 5368736 5368737 5368736 5368746 5368747 5368748 5368747 
5368709 5368709 5368709 5368709 999999 5368757 5368758 5368757 5368756 5368730 5368731 5368732 5368731 5368725 5368726 5368725 5368724 5368755 5368756 5368755 5368754 5368730 5368729 5368728 5368729 5368741 5368742 5368741 5368740 5368717 5368718 5368717 5368716 5368748 5368749 5368748 5368747 5368742 5368743 5368744 5368743 5368719 5368718 5368719 5368720 
5368709 5368709 5368709 5368709 5368709 999999 0 10737418 10737418 5368737 5368736 5368737 5368738 5368746 5368745 5368744 5368745 5368722 5368723 5368722 5368721 5368757 5368756 5368755 5368756 5368726 5368725 5368724 5368725 5368760 5368759 5368758 5368759 5368719 5368718 5368719 5368720 5368729 5368728 5368729 5368730 5368764 5368763 5368764 5368765 
5368709 5368709 5368709 5368709 5368709 10737418 999999 0 10737418 5368738 5368737 5368738 5368739 5368747 5368746 5368745 5368746 5368721 5368722 5368721 5368720 5368758 5368757 5368756 5368757 5368727 5368726 5368725 5368726 5368761 5368760 5368759 5368760 5368720 5368719 5368720 5368721 5368728 5368727 5368728 5368729 5368765 5368764 5368765 5368766 
5368709 5368709 5368709 5368709 5368709 10737418 10737418 999999 0 5368739 5368738 5368739 5368740 5368748 5368747 5368746 5368747 5368722 5368723 5368722 5368721 5368759 5368758 5368757 5368758 5368728 5368727 5368726 5368727 5368762 5368761 5368760 5368761 5368721 5368720 5368721 5368722 5368729 5368728 5368729 5368730 5368766 5368765 5368766 5368767 
5368709 5368709 5368709 5368709 5368709 0 10737418 10737418 999999 5368738 5368737 5368738 5368739 5368747 5368746 5368745 5368746 5368723 5368724 5368723 5368722 5368758 5368757 5368756 5368757 5368727 5368726 5368725 5368726 5368761 5368760 5368759 5368760 5368720 5368719 5368720 5368721 5368730 5368729 5368730 5368731 5368765 5368764 5368765 5368766 
5368709 5368709 5368709 5368709 5368709 5368739 5368740 5368739 5368738 999999 0 10737418 10737418 5368729 5368728 5368727 5368728 5368739 5368740 5368739 5368738 5368742 5368741 5368740 5368741 5368723 5368724 5368723 5368722 5368737 5368736 5368735 5368736 5368732 5368731 5368732 5368731 5368728 5368729 5368728 5368729 5368741 5368740 5368741 5368742 
5368709 5368709 5368709 5368709 5368709 5368738 5368739 5368738 5368737 10737418 999999 0 10737418 5368728 5368727 5368726 5368727 5368738 5368739 5368738 5368737 5368741 5368740 5368739 5368740 5368722 5368723 5368722 5368721 5368736 5368735 5368734 5368735 5368731 5368730 5368731 5368730 5368727 5368728 5368727 5368728 5368740 5368739 5368740 5368741 
5368709 5368709 5368709 5368709 5368709 5368737 5368738 5368737 5368736 10737418 10737418 999999 0 5368729 5368728 5368727 5368728 5368737 5368738 5368737 5368736 5368742 5368741 5368740 5368741 5368721 5368722 5368721 5368720 5368737 5368736 5368735 5368736 5368730 5368729 5368730 5368729 5368726 5368727 5368726 5368727 5368741 5368740 5368741 5368742 
5368709 5368709 5368709 5368709 5368709 5368738 5368739 5368738 5368737 0 10737418 10737418 999999 5368730 5368729 5368728 5368729 5368738 5368739 5368738 5368737 5368743 5368742 5368741 5368742 5368722 5368723 5368722 5368721 5368738 5368737 5368736 5368737 5368731 5368730 5368731 5368730 5368727 5368728 5368727 5368728 5368742 5368741 5368742 5368743 
5368709 5368709 5368709 5368709 5368709 5368746 5368747 5368746 5368745 5368727 5368728 5368729 5368728 999999 0 10737418 10737418 5368748 5368749 5368748 5368747 5368723 5368722 5368721 5368722 5368732 5368733 5368732 5368731 5368732 5368731 5368730 5368731 5368737 5368738 5368737 5368736 5368741 5368740 5368739 5368740 5368732 5368731 5368730 5368731 
5368709 5368709 5368709 5368709 5368709 5368747 5368748 5368747 5368746 5368728 5368729 5368730 5368729 10737418 999999 0 10737418 5368749 5368750 5368749 5368748 5368724 5368723 5368722 5368723 5368733 5368734 5368733 5368732 5368733 5368732 5368731 5368732 5368738 5368739 5368738 5368737 5368742 5368741 5368740 5368741 5368733 5368732 5368731 5368732 
5368709 5368709 5368709 5368709 5368709 5368746 5368747 5368746 5368745 5368727 5368728 5368729 5368728 10737418 10737418 999999 0 5368748 5368749 5368748 5368747 5368725 5368724 5368723 5368724 5368732 5368733 5368732 5368731 5368734 5368733 5368732 5368733 5368737 5368738 5368737 5368736 5368741 5368740 5368739 5368740 5368734 5368733 5368732 5368733 
5368709 5368709 5368709 5368709 5368709 5368745 5368746 5368745 5368744 5368726 5368727 5368728 5368727 0 10737418 10737418 999999 5368747 5368748 5368747 5368746 5368724 5368723 5368722 5368723 5368731 5368732 5368731 5368730 5368733 5368732 5368731 5368732 5368736 5368737 5368736 5368735 5368740 5368739 5368738 5368739 5368733 5368732 5368731 5368732 
5368709 5368709 5368709 5368709 5368709 5368720 5368721 5368722 5368721 5368737 5368736 5368737 5368738 5368748 5368747 5368746 5368747 999999 0 10737418 10737418 5368761 5368760 5368759 5368760 5368726 5368725 5368726 5368727 5368760 5368759 5368758 5368759 5368727 5368726 5368727 5368728 5368723 5368722 5368723 5368724 5368764 5368763 5368764 5368765 
5368709 5368709 5368709 5368709 5368709 5368721 5368722 5368723 5368722 5368738 5368737 5368738 5368739 5368749 5368748 5368747 5368748 10737418 999999 0 10737418 5368762 5368761 5368760 5368761 5368727 5368726 5368727 5368728 5368761 5368760 5368759 5368760 5368728 5368727 5368728 5368729 5368724 5368723 5368724 5368725 5368765 5368764 5368765 5368766 
5368709 5368709 5368709 5368709 5368709 5368722 5368723 5368724 5368723 5368739 5368738 5368739 5368740 5368750 5368749 5368748 5368749 10737418 10737418 999999 0 5368763 5368762 5368761 5368762 5368728 5368727 5368728 5368729 5368762 5368761 5368760 5368761 5368729 5368728 5368729 5368730 5368725 5368724 5368725 5368726 5368766 5368765 5368766 5368767 
5368709 5368709 5368709 5368709 5368709 5368721 5368722 5368723 5368722 5368738 5368737 5368738 5368739 5368749 5368748 5368747 5368748 0 10737418 10737418 999999 5368762 5368761 5368760 5368761 5368727 5368726 5368727 5368728 5368761 5368760 5368759 5368760 5368728 5368727 5368728 5368729 5368724 5368723 5368724 5368725 5368765 5368764 5368765 5368766 
5368709 5368709 5368709 5368709 5368709 5368757 5368758 5368757 5368756 5368740 5368741 5368742 5368741 5368723 5368724 5368723 5368722 5368761 5368762 5368761 5368760 999999 0 10737418 10737418 5368745 5368746 5368745 5368744 5368737 5368736 5368735 5368736 5368748 5368749 5368750 5368749 5368754 5368753 5368752 5368753 5368735 5368734 5368733 5368734 
5368709 5368709 5368709 5368709 5368709 5368758 5368759 5368758 5368757 5368741 5368742 5368743 5368742 5368724 5368725 5368724 5368723 5368762 5368763 5368762 5368761 10737418 999999 0 10737418 5368746 5368747 5368746 5368745 5368738 5368737 5368736 5368737 5368749 5368750 5368751 5368750 5368755 5368754 5368753 5368754 5368736 5368735 5368734 5368735 
5368709 5368709 5368709 5368709 5368709 5368757 5368758 5368757 5368756 5368740 5368741 5368742 5368741 5368723 5368724 5368723 5368722 5368761 5368762 5368761 5368760 10737418 10737418 999999 0 5368745 5368746 5368745 5368744 5368737 5368736 5368735 5368736 5368748 5368749 5368750 5368749 5368754 5368753 5368752 5368753 5368735 5368734 5368733 5368734 
5368709 5368709 5368709 5368709 5368709 5368756 5368757 5368756 5368755 5368739 5368740 5368741 5368740 5368722 5368723 5368722 5368721 5368760 5368761 5368760 5368759 0 10737418 10737418 999999 5368744 5368745 5368744 5368743 5368736 5368735 5368734 5368735 5368747 5368748 5368749 5368748 5368753 5368752 5368751 5368752 5368734 5368733 5368732 5368733 
5368709 5368709 5368709 5368709 5368709 5368726 5368727 5368726 5368725 5368721 5368720 5368721 5368722 5368732 5368731 5368730 5368731 5368728 5368729 5368728 5368727 5368745 5368744 5368743 5368744 999999 0 10737418 10737418 5368746 5368745 5368744 5368745 5368719 5368718 5368719 5368720 5368725 5368724 5368723 5368724 5368750 5368749 5368750 5368751 
5368709 5368709 5368709 5368709 5368709 5368727 5368728 5368727 5368726 5368722 5368721 5368722 5368723 5368733 5368732 5368731 5368732 5368727 5368728 5368727 5368726 5368746 5368745 5368744 5368745 10737418 999999 0 10737418 5368747 5368746 5368745 5368746 5368720 5368719 5368720 5368721 5368724 5368723 5368722 5368723 5368751 5368750 5368751 5368752 
5368709 5368709 5368709 5368709 5368709 5368726 5368727 5368726 5368725 5368723 5368722 5368723 5368724 5368734 5368733 5368732 5368733 5368726 5368727 5368726 5368725 5368747 5368746 5368745 5368746 10737418 10737418 999999 0 5368748 5368747 5368746 5368747 5368719 5368718 5368719 5368720 5368723 5368722 5368721 5368722 5368752 5368751 5368752 5368753 
5368709 5368709 5368709 5368709 5368709 5368725 5368726 5368725 5368724 5368722 5368721 5368722 5368723 5368733 5368732 5368731 5368732 5368727 5368728 5368727 5368726 5368746 5368745 5368744 5368745 0 10737418 10737418 999999 5368747 5368746 5368745 5368746 5368718 5368717 5368718 5368719 5368724 5368723 5368722 5368723 5368751 5368750 5368751 5368752 
5368709 5368709 5368709 5368709 5368709 5368760 5368761 5368760 5368759 5368735 5368736 5368737 5368736 5368732 5368733 5368732 5368731 5368760 5368761 5368760 5368759 5368737 5368736 5368735 5368736 5368746 5368747 5368746 5368745 999999 0 10737418 10737418 5368751 5368752 5368751 5368750 5368747 5368748 5368749 5368748 5368716 5368717 5368718 5368717 
5368709 5368709 5368709 5368709 5368709 5368761 5368762 5368761 5368760 5368736 5368737 5368738 5368737 5368733 5368734 5368733 5368732 5368761 5368762 5368761 5368760 5368738 5368737 5368736 5368737 5368747 5368748 5368747 5368746 10737418 999999 0 10737418 5368752 5368753 5368752 5368751 5368748 5368749 5368750 5368749 5368717 5368718 5368719 5368718 
5368709 5368709 5368709 5368709 5368709 5368760 5368761 5368760 5368759 5368735 5368736 5368737 5368736 5368732 5368733 5368732 5368731 5368760 5368761 5368760 5368759 5368737 5368736 5368735 5368736 5368746 5368747 5368746 5368745 10737418 10737418 999999 0 5368751 5368752 5368751 5368750 5368747 5368748 5368749 5368748 5368718 5368717 5368718 5368719 
5368709 5368709 5368709 5368709 5368709 5368759 5368760 5368759 5368758 5368734 5368735 5368736 5368735 5368731 5368732 5368731 5368730 5368759 5368760 5368759 5368758 5368736 5368735 5368734 5368735 5368745 5368746 5368745 5368744 0 10737418 10737418 999999 5368750 5368751 5368750 5368749 5368746 5368747 5368748 5368747 5368717 5368716 5368717 5368718 
5368709 5368709 5368709 5368709 5368709 5368721 5368722 5368721 5368720 5368730 5368729 5368730 5368731 5368737 5368736 5368735 5368736 5368729 5368730 5368729 5368728 5368750 5368749 5368748 5368749 5368721 5368720 5368719 5368720 5368751 5368750 5368749 5368750 999999 0 10737418 10737418 5368734 5368733 5368732 5368733 5368755 5368754 5368755 5368756 
5368709 5368709 5368709 5368709 5368709 5368720 5368721 5368720 5368719 5368731 5368730 5368731 5368732 5368738 5368737 5368736 5368737 5368728 5368729 5368728 5368727 5368749 5368748 5368747 5368748 5368720 5368719 5368718 5368719 5368752 5368751 5368750 5368751 10737418 999999 0 10737418 5368733 5368732 5368731 5368732 5368756 5368755 5368756 5368757 
5368709 5368709 5368709 5368709 5368709 5368719 5368720 5368719 5368718 5368730 5368729 5368730 5368731 5368739 5368738 5368737 5368738 5368727 5368728 5368727 5368726 5368750 5368749 5368748 5368749 5368719 5368718 5368717 5368718 5368753 5368752 5368751 5368752 10737418 10737418 999999 0 5368732 5368731 5368730 5368731 5368757 5368756 5368757 5368758 
5368709 5368709 5368709 5368709 5368709 5368720 5368721 5368720 5368719 5368731 5368730 5368731 5368732 5368738 5368737 5368736 5368737 5368728 5368729 5368728 5368727 5368751 5368750 5368749 5368750 5368720 5368719 5368718 5368719 5368752 5368751 5368750 5368751 0 10737418 10737418 999999 5368733 5368732 5368731 5368732 5368756 5368755 5368756 5368757 
5368709 5368709 5368709 5368709 5368709 5368729 5368730 5368731 5368730 5368728 5368727 5368728 5368729 5368741 5368740 5368739 5368740 5368725 5368726 5368725 5368724 5368754 5368753 5368752 5368753 5368723 5368722 5368723 5368724 5368749 5368748 5368747 5368748 5368732 5368731 5368732 5368733 999999 0 10737418 10737418 5368753 5368752 5368753 5368754 
5368709 5368709 5368709 5368709 5368709 5368728 5368729 5368730 5368729 5368727 5368726 5368727 5368728 5368742 5368741 5368740 5368741 5368724 5368725 5368724 5368723 5368755 5368754 5368753 5368754 5368724 5368723 5368724 5368725 5368748 5368747 5368746 5368747 5368733 5368732 5368733 5368734 10737418 999999 0 10737418 5368752 5368751 5368752 5368753 
5368709 5368709 5368709 5368709 5368709 5368727 5368728 5368729 5368728 5368728 5368727 5368728 5368729 5368741 5368740 5368739 5368740 5368723 5368724 5368723 5368722 5368754 5368753 5368752 5368753 5368723 5368722 5368723 5368724 5368749 5368748 5368747 5368748 5368732 5368731 5368732 5368733 10737418 10737418 999999 0 5368753 5368752 5368753 5368754 
5368709 5368709 5368709 5368709 5368709 5368728 5368729 5368730 5368729 5368727 5368726 5368727 5368728 5368740 5368739 5368738 5368739 5368724 5368725 5368724 5368723 5368753 5368752 5368751 5368752 5368722 5368721 5368722 5368723 5368750 5368749 5368748 5368749 5368731 5368730 5368731 5368732 0 10737418 10737418 999999 5368754 5368753 5368754 5368755 
5368709 5368709 5368709 5368709 5368709 5368766 5368767 5368766 5368765 5368741 5368742 5368743 5368742 5368732 5368733 5368732 5368731 5368766 5368767 5368766 5368765 5368735 5368734 5368733 5368734 5368752 5368753 5368752 5368751 5368718 5368719 5368718 5368717 5368757 5368758 5368757 5368756 5368753 5368754 5368755 5368754 999999 0 10737418 10737418 
5368709 5368709 5368709 5368709 5368709 5368765 5368766 5368765 5368764 5368740 5368741 5368742 5368741 5368733 5368734 5368733 5368732 5368765 5368766 5368765 5368764 5368736 5368735 5368734 5368735 5368751 5368752 5368751 5368750 5368717 5368718 5368717 5368716 5368756 5368757 5368756 5368755 5368752 5368753 5368754 5368753 10737418 999999 0 10737418 
5368709 5368709 5368709 5368709 5368709 5368764 5368765 5368764 5368763 5368739 5368740 5368741 5368740 5368732 5368733 5368732 5368731 5368764 5368765 5368764 5368763 5368735 5368734 5368733 5368734 5368750 5368751 5368750 5368749 5368718 5368717 5368716 5368717 5368755 5368756 5368755 5368754 5368751 5368752 5368753 5368752 10737418 10737418 999999 0 
5368709 5368709 5368709 5368709 5368709 5368765 5368766 5368765 5368764 5368740 5368741 5368742 5368741 5368731 5368732 5368731 5368730 5368765 5368766 5368765 5368764 5368734 5368733 5368732 5368733 5368751 5368752 5368751 5368750 5368719 5368718 5368717 5368718 5368756 5368757 5368756 5368755 5368752 5368753 5368754 5368753 0 10737418 10737418 999999 
EOF
