RobustCbss/GLKH-1.1/TMP/mtspf.pid4211.tour
NAME : mtspf.pid4211.gtsp.80530739.tour
COMMENT : Length = 80530739
COMMENT : Found by LKH [Keld Helsgaun] Fri Feb 28 13:10:23 2025
TYPE : TOUR
DIMENSION : 45
TOUR_SECTION
1
15
16
17
14
24
25
22
23
4
5
33
30
31
32
43
44
45
42
2
13
10
11
12
26
27
28
29
37
34
35
36
9
6
7
8
20
21
18
19
39
40
41
38
3
-1
EOF
